%%MatrixMarket matrix coordinate integer general
1026 1031 2093
1 1 14
2 1 7
5 1 6
6 1 5
7 1 5
10 1 3
11 1 4
18 1 1
20 1 1
21 1 3
24 1 1
25 1 3
26 1 2
28 1 2
30 1 2
41 1 1
45 1 1
49 1 1
51 1 2
56 1 2
67 1 1
73 1 1
84 1 1
167 1 1
179 1 1
239 1 1
268 1 1
321 1 1
364 1 1
384 1 1
465 1 1
475 1 1
487 1 1
530 1 1
537 1 1
541 1 1
589 1 1
596 1 1
612 1 1
630 1 1
638 1 1
642 1 1
648 1 1
654 1 1
713 1 1
762 1 1
791 1 1
816 1 1
831 1 1
878 1 1
913 1 1
924 1 1
927 1 1
945 1 1
949 1 1
962 1 1
996 1 1
1012 1 4
1017 1 2
3 2 6
7 2 1
9 2 2
27 2 1
45 2 2
58 2 2
60 2 1
70 2 2
89 2 1
106 2 1
135 2 1
142 2 1
174 2 1
280 2 1
300 2 1
347 2 1
412 2 1
432 2 1
529 2 1
655 2 1
660 2 1
761 2 1
800 2 1
801 2 1
865 2 1
867 2 1
868 2 1
900 2 1
905 2 1
968 2 1
1008 2 1
1 3 4
2 3 6
5 3 2
6 3 1
9 3 4
10 3 4
11 3 4
14 3 3
16 3 1
18 3 3
21 3 2
25 3 3
39 3 2
41 3 2
51 3 1
60 3 1
67 3 1
117 3 1
118 3 1
178 3 1
186 3 1
250 3 1
289 3 1
334 3 1
416 3 1
419 3 1
443 3 1
446 3 1
448 3 1
475 3 1
477 3 1
482 3 1
494 3 1
505 3 1
524 3 1
541 3 1
623 3 1
651 3 1
708 3 1
724 3 1
744 3 1
762 3 1
773 3 1
775 3 1
787 3 1
831 3 1
851 3 1
946 3 1
965 3 1
969 3 1
978 3 1
4 4 6
19 4 1
27 4 1
33 4 2
40 4 2
43 4 2
46 4 2
59 4 2
65 4 1
159 4 1
197 4 1
205 4 1
214 4 1
223 4 1
246 4 1
255 4 1
274 4 1
312 4 1
324 4 1
325 4 1
338 4 1
339 4 1
344 4 1
360 4 1
366 4 1
371 4 1
376 4 1
385 4 1
398 4 1
417 4 1
418 4 1
461 4 1
478 4 1
492 4 1
522 4 1
540 4 1
579 4 1
638 4 1
649 4 1
650 4 1
655 4 1
661 4 1
670 4 1
682 4 1
695 4 1
700 4 1
743 4 1
763 4 1
769 4 1
790 4 1
793 4 1
811 4 1
826 4 1
835 4 1
844 4 1
884 4 1
917 4 1
941 4 1
985 4 1
1014 4 2
1015 4 2
1016 4 2
1026 4 2
5 5 6
7 5 1
71 5 2
253 5 1
481 5 1
568 5 1
603 5 1
627 5 1
1 6 5
2 6 2
3 6 1
5 6 2
7 6 1
11 6 1
202 6 1
292 6 1
727 6 1
994 6 1
1012 6 2
8 7 5
353 7 1
6 8 1
7 8 1
12 8 4
22 8 1
23 8 3
24 8 3
63 8 1
132 8 1
138 8 1
154 8 1
319 8 1
366 8 1
396 8 1
504 8 1
508 8 1
564 8 1
688 8 1
726 8 1
13 9 3
13 10 3
1019 10 2
7 11 3
656 11 1
15 12 3
1025 12 2
7 13 2
16 13 3
34 13 1
288 13 1
555 13 1
861 13 1
977 13 1
983 13 1
7 14 1
17 14 3
47 14 2
92 14 1
299 14 1
614 14 1
702 14 1
897 14 1
903 14 1
906 14 1
907 14 1
5 15 1
17 15 3
73 15 1
147 15 1
19 16 3
63 16 1
114 16 1
221 16 1
227 16 1
819 16 1
997 16 1
1021 16 2
6 17 2
7 17 1
13 17 1
17 17 1
18 17 1
20 17 3
21 17 1
29 17 2
30 17 1
37 17 2
38 17 2
39 17 1
41 17 1
45 17 1
51 17 1
64 17 1
66 17 2
89 17 1
124 17 1
147 17 1
162 17 1
175 17 1
192 17 1
203 17 1
235 17 1
237 17 1
283 17 1
285 17 1
304 17 1
309 17 1
323 17 1
343 17 1
378 17 1
421 17 1
422 17 1
448 17 1
456 17 1
491 17 1
501 17 1
512 17 1
557 17 1
583 17 1
597 17 1
632 17 1
638 17 1
641 17 1
662 17 1
666 17 1
671 17 1
672 17 1
684 17 1
698 17 1
731 17 1
736 17 1
747 17 1
752 17 1
756 17 1
762 17 1
837 17 1
853 17 1
864 17 1
876 17 1
878 17 1
906 17 1
926 17 1
930 17 1
931 17 1
947 17 1
960 17 1
961 17 1
963 17 1
987 17 1
993 17 1
1000 17 1
1020 17 2
1023 17 2
22 18 3
210 18 1
1013 18 3
5 19 3
5 20 3
871 20 1
13 21 2
13 22 2
13 23 2
267 23 1
27 24 2
103 24 1
122 24 1
218 24 1
359 24 1
448 24 1
543 24 1
669 24 1
797 24 1
835 24 1
879 24 1
999 24 1
7 25 2
42 25 1
45 25 1
52 25 2
69 25 2
124 25 1
177 25 1
190 25 1
245 25 1
251 25 1
273 25 1
306 25 1
378 25 1
384 25 1
390 25 1
394 25 1
459 25 1
466 25 1
489 25 1
498 25 1
518 25 1
557 25 1
567 25 1
623 25 1
659 25 1
671 25 1
691 25 1
774 25 1
776 25 1
818 25 1
845 25 1
855 25 1
856 25 1
901 25 1
916 25 1
936 25 1
1001 25 1
3 26 1
9 26 2
34 26 2
60 26 1
144 26 1
152 26 1
298 26 1
341 26 1
363 26 1
479 26 1
541 26 1
671 26 1
687 26 1
703 26 1
729 26 1
741 26 1
846 26 1
945 26 1
981 26 1
31 27 2
42 27 1
1022 27 2
32 28 2
1018 28 2
1 29 1
2 29 1
34 29 2
58 29 1
65 29 2
313 29 1
638 29 1
910 29 1
939 29 1
973 29 1
35 30 2
1 31 1
2 31 1
10 31 2
11 31 1
41 31 1
60 31 1
63 31 1
74 31 1
76 31 1
158 31 1
538 31 1
765 31 1
862 31 1
10 32 2
36 33 2
39 34 2
416 34 1
423 34 1
483 34 1
17 35 2
60 35 1
258 35 1
17 36 2
73 36 2
970 36 1
17 37 2
61 37 1
299 37 1
887 37 1
970 37 1
17 38 2
299 38 1
2 39 1
17 39 2
42 39 2
57 39 2
111 39 1
333 39 1
799 39 1
901 39 1
966 39 1
9 40 1
12 40 2
24 40 1
60 40 1
68 40 1
816 40 1
938 40 1
954 40 1
971 40 1
2 41 1
4 41 1
42 41 2
45 41 1
53 41 2
72 41 2
87 41 1
88 41 1
97 41 1
113 41 1
139 41 1
154 41 1
156 41 1
161 41 1
166 41 1
176 41 1
184 41 1
196 41 1
211 41 1
228 41 1
255 41 1
270 41 1
278 41 1
300 41 1
311 41 1
337 41 1
349 41 1
368 41 1
372 41 1
386 41 1
388 41 1
393 41 1
431 41 1
440 41 1
464 41 1
474 41 1
491 41 1
511 41 1
519 41 1
554 41 1
563 41 1
566 41 1
573 41 1
580 41 1
599 41 1
625 41 1
629 41 1
639 41 1
641 41 1
650 41 1
694 41 1
703 41 1
714 41 1
760 41 1
779 41 1
801 41 1
813 41 1
821 41 1
828 41 1
830 41 1
838 41 1
873 41 1
930 41 1
964 41 1
986 41 1
1009 41 1
4 42 1
39 42 1
42 42 2
57 42 1
68 42 2
208 42 1
387 42 1
424 42 1
432 42 1
472 42 1
493 42 1
557 42 1
650 42 1
746 42 1
759 42 1
778 42 1
858 42 1
865 42 1
889 42 1
901 42 1
1004 42 1
17 43 1
42 43 2
70 43 1
73 43 1
803 43 1
44 44 2
48 45 2
63 45 1
49 46 2
299 46 1
619 46 1
2 47 1
5 47 1
11 47 1
28 47 1
29 47 1
49 47 2
58 47 2
83 47 1
224 47 1
225 47 1
238 47 1
348 47 1
486 47 1
491 47 1
494 47 1
613 47 1
671 47 1
696 47 1
835 47 1
870 47 1
909 47 1
977 47 1
1 48 2
41 48 1
49 48 1
179 48 1
644 48 1
1 49 2
1 50 2
51 50 1
254 50 1
473 50 1
509 50 1
950 50 1
959 50 1
50 51 2
447 51 1
500 51 1
848 51 1
4 52 2
13 52 1
43 53 1
54 53 2
96 53 1
116 53 1
122 53 1
127 53 1
145 53 1
226 53 1
266 53 1
485 53 1
507 53 1
547 53 1
634 53 1
689 53 1
711 53 1
868 53 1
55 54 2
296 54 1
979 54 1
58 55 2
593 55 1
755 55 1
60 56 2
67 56 1
109 56 1
273 56 1
369 56 1
431 56 1
448 56 1
61 57 2
61 58 2
673 58 1
61 59 2
234 59 1
61 60 2
5 61 1
61 61 2
784 61 1
61 62 2
13 63 1
61 63 2
62 64 2
63 65 2
520 65 1
3 66 1
9 66 1
20 66 1
41 66 1
51 66 1
64 66 2
85 66 1
95 66 1
108 66 1
110 66 1
282 66 1
300 66 1
494 66 1
527 66 1
614 66 1
638 66 1
786 66 1
810 66 1
834 66 1
838 66 1
839 66 1
937 66 1
1005 66 1
5 67 2
5 68 2
15 68 1
73 68 1
79 68 1
647 68 1
5 69 2
5 70 2
67 71 2
57 72 1
73 72 2
105 72 1
156 72 1
68 73 1
73 73 2
73 74 2
1024 74 2
17 75 1
74 75 2
13 76 1
13 77 1
13 78 1
13 79 1
13 80 1
13 81 1
13 82 1
58 82 1
13 83 1
13 84 1
13 85 1
13 86 1
13 87 1
13 88 1
13 89 1
13 90 1
61 90 1
13 91 1
395 91 1
635 91 1
13 92 1
13 93 1
13 94 1
13 95 1
13 96 1
13 97 1
13 98 1
13 99 1
13 100 1
13 101 1
13 102 1
13 103 1
13 104 1
13 105 1
13 106 1
48 106 1
13 107 1
13 108 1
212 108 1
13 109 1
13 110 1
13 111 1
14 111 1
13 112 1
197 112 1
291 112 1
13 113 1
7 114 1
13 114 1
63 114 1
637 114 1
768 114 1
13 115 1
13 116 1
61 116 1
13 117 1
13 118 1
13 119 1
13 120 1
13 121 1
13 122 1
13 123 1
61 123 1
327 123 1
13 124 1
13 125 1
439 125 1
13 126 1
13 127 1
13 128 1
13 129 1
13 130 1
13 131 1
13 132 1
7 133 1
13 133 1
41 133 1
61 133 1
140 133 1
271 133 1
13 134 1
13 135 1
13 136 1
13 137 1
876 137 1
934 137 1
13 138 1
13 139 1
13 140 1
6 141 1
5 142 1
6 142 1
892 142 1
2 143 1
6 143 1
49 143 1
551 143 1
717 143 1
6 144 1
3 145 1
6 145 1
41 145 1
60 145 1
86 145 1
187 145 1
351 145 1
655 145 1
678 145 1
737 145 1
979 145 1
7 146 1
21 146 1
45 146 1
73 146 1
75 146 1
88 146 1
91 146 1
286 146 1
392 146 1
456 146 1
469 146 1
486 146 1
586 146 1
587 146 1
754 146 1
897 146 1
77 147 1
77 148 1
78 149 1
78 150 1
80 151 1
80 152 1
14 153 1
34 153 1
67 153 1
81 153 1
505 153 1
82 154 1
86 155 1
866 155 1
86 156 1
86 157 1
72 158 1
87 158 1
223 158 1
231 158 1
350 158 1
517 158 1
545 158 1
592 158 1
820 158 1
880 158 1
920 158 1
940 158 1
88 159 1
39 160 1
88 160 1
89 161 1
958 161 1
90 162 1
27 163 1
27 164 1
61 164 1
248 164 1
308 164 1
404 164 1
546 164 1
808 164 1
27 165 1
39 165 1
138 165 1
394 165 1
93 166 1
93 167 1
5 168 1
17 168 1
61 168 1
93 168 1
94 169 1
98 170 1
61 171 1
99 171 1
99 172 1
382 172 1
99 173 1
99 174 1
99 175 1
5 176 1
7 176 1
7 177 1
355 177 1
623 177 1
716 177 1
893 177 1
7 178 1
193 178 1
297 178 1
367 178 1
515 178 1
781 178 1
7 179 1
1 180 1
7 180 1
7 181 1
7 182 1
7 183 1
7 184 1
7 185 1
7 186 1
7 187 1
7 188 1
213 188 1
976 188 1
983 188 1
1 189 1
5 189 1
7 189 1
10 189 1
21 189 1
56 189 1
175 189 1
475 189 1
667 189 1
807 189 1
888 189 1
946 189 1
7 190 1
7 191 1
7 192 1
21 192 1
101 192 1
486 192 1
869 192 1
7 193 1
113 193 1
7 194 1
7 195 1
7 196 1
7 197 1
7 198 1
7 199 1
486 199 1
7 200 1
1 201 1
5 201 1
7 201 1
10 201 1
21 201 1
25 201 1
49 201 1
170 201 1
494 201 1
715 201 1
7 202 1
171 202 1
7 203 1
7 204 1
516 204 1
585 204 1
795 204 1
7 205 1
45 205 1
56 205 1
72 205 1
124 205 1
131 205 1
148 205 1
356 205 1
365 205 1
381 205 1
584 205 1
674 205 1
912 205 1
918 205 1
923 205 1
7 206 1
7 207 1
7 208 1
1 209 1
7 209 1
51 209 1
7 210 1
7 211 1
7 212 1
516 212 1
7 213 1
7 214 1
7 215 1
7 216 1
67 216 1
340 216 1
358 216 1
425 216 1
436 216 1
497 216 1
556 216 1
972 216 1
1010 216 1
1 217 1
5 217 1
7 217 1
42 217 1
104 217 1
7 218 1
7 219 1
7 220 1
7 221 1
7 222 1
7 223 1
1 224 1
7 224 1
7 225 1
42 225 1
1 226 1
7 226 1
25 226 1
60 226 1
179 226 1
207 226 1
100 227 1
102 228 1
106 229 1
106 230 1
107 231 1
112 232 1
112 233 1
112 234 1
112 235 1
60 236 1
112 236 1
494 236 1
1 237 1
112 237 1
115 238 1
9 239 1
9 240 1
9 241 1
9 242 1
9 243 1
9 244 1
9 245 1
206 245 1
511 245 1
571 245 1
783 245 1
897 245 1
9 246 1
116 247 1
28 248 1
28 249 1
28 250 1
28 251 1
537 251 1
28 252 1
119 253 1
48 254 1
120 254 1
970 254 1
121 255 1
123 256 1
125 257 1
74 258 1
125 258 1
126 259 1
128 260 1
2 261 1
129 261 1
129 262 1
904 262 1
61 263 1
130 263 1
618 263 1
133 264 1
52 265 1
134 265 1
219 265 1
236 265 1
370 265 1
626 265 1
14 266 1
14 267 1
14 268 1
48 268 1
604 268 1
697 268 1
728 268 1
14 269 1
14 270 1
14 271 1
14 272 1
14 273 1
14 274 1
136 275 1
137 276 1
138 277 1
39 278 1
140 278 1
140 279 1
140 280 1
140 281 1
140 282 1
141 283 1
665 283 1
142 284 1
143 285 1
276 285 1
611 285 1
699 285 1
875 285 1
974 285 1
146 286 1
146 287 1
149 288 1
150 289 1
150 290 1
151 291 1
153 292 1
2 293 1
154 293 1
302 293 1
482 293 1
155 294 1
157 295 1
160 296 1
163 297 1
164 298 1
915 298 1
165 299 1
305 299 1
168 300 1
269 300 1
471 300 1
169 301 1
182 301 1
771 301 1
809 301 1
929 301 1
169 302 1
172 303 1
173 304 1
3 305 1
3 306 1
3 307 1
3 308 1
5 308 1
21 308 1
444 308 1
651 308 1
706 308 1
712 308 1
179 309 1
179 310 1
179 311 1
180 312 1
30 313 1
30 314 1
663 314 1
181 315 1
15 316 1
183 317 1
185 318 1
284 318 1
409 318 1
606 318 1
673 318 1
789 318 1
885 318 1
188 319 1
189 320 1
191 321 1
194 322 1
195 323 1
198 324 1
10 325 1
199 325 1
329 325 1
628 325 1
749 325 1
849 325 1
991 325 1
996 325 1
200 326 1
51 327 1
201 327 1
315 327 1
638 327 1
204 328 1
209 329 1
383 329 1
757 329 1
834 329 1
906 329 1
933 329 1
211 330 1
215 331 1
216 332 1
401 332 1
217 333 1
220 334 1
10 335 1
222 335 1
260 335 1
229 336 1
230 337 1
428 337 1
232 338 1
502 338 1
233 339 1
935 339 1
234 340 1
236 341 1
236 342 1
240 343 1
241 344 1
241 345 1
242 346 1
243 347 1
32 348 1
244 348 1
247 349 1
273 349 1
249 350 1
383 350 1
426 350 1
544 350 1
641 350 1
772 350 1
956 350 1
969 350 1
1002 350 1
1003 350 1
32 351 1
252 352 1
5 353 1
253 353 1
253 354 1
256 355 1
257 356 1
259 357 1
261 358 1
262 359 1
263 360 1
264 361 1
264 362 1
265 363 1
272 364 1
274 365 1
42 366 1
73 366 1
274 366 1
371 366 1
405 366 1
513 366 1
643 366 1
652 366 1
690 366 1
699 366 1
714 366 1
730 366 1
739 366 1
750 366 1
275 367 1
277 368 1
279 369 1
281 370 1
287 371 1
290 372 1
293 373 1
294 374 1
295 375 1
295 376 1
34 377 1
299 378 1
526 378 1
580 378 1
585 378 1
863 378 1
998 378 1
300 379 1
1 380 1
25 380 1
61 380 1
301 380 1
48 381 1
303 381 1
594 381 1
306 382 1
11 383 1
307 383 1
428 383 1
310 384 1
314 385 1
316 386 1
317 387 1
318 388 1
42 389 1
320 389 1
410 389 1
411 389 1
953 389 1
322 390 1
326 391 1
2 392 1
41 392 1
328 392 1
725 392 1
842 392 1
328 393 1
330 394 1
331 395 1
331 396 1
331 397 1
332 398 1
333 399 1
658 399 1
333 400 1
414 400 1
624 400 1
645 400 1
655 400 1
721 400 1
897 400 1
335 401 1
336 402 1
41 403 1
57 403 1
342 403 1
450 403 1
345 404 1
346 405 1
346 406 1
351 407 1
352 408 1
859 408 1
354 409 1
357 410 1
357 411 1
361 412 1
605 412 1
798 412 1
361 413 1
362 414 1
61 415 1
366 415 1
707 415 1
366 416 1
476 416 1
780 416 1
366 417 1
1 418 1
25 418 1
370 418 1
10 419 1
61 419 1
10 420 1
67 420 1
10 421 1
10 422 1
10 423 1
10 424 1
10 425 1
396 425 1
10 426 1
10 427 1
373 428 1
374 429 1
375 430 1
377 431 1
379 432 1
380 433 1
380 434 1
380 435 1
454 435 1
11 436 1
11 437 1
11 438 1
559 438 1
11 439 1
11 440 1
5 441 1
384 441 1
389 442 1
668 442 1
391 443 1
394 444 1
528 444 1
719 444 1
397 445 1
399 446 1
400 447 1
402 448 1
403 449 1
406 450 1
428 450 1
407 451 1
735 451 1
408 452 1
413 453 1
415 454 1
416 455 1
416 456 1
417 457 1
420 458 1
1 459 1
58 459 1
422 459 1
896 459 1
938 459 1
423 460 1
39 461 1
70 461 1
39 462 1
39 463 1
39 464 1
39 465 1
424 466 1
424 467 1
17 468 1
424 468 1
535 468 1
57 469 1
424 469 1
427 470 1
429 471 1
430 472 1
20 473 1
431 473 1
431 474 1
431 475 1
61 476 1
431 476 1
431 477 1
431 478 1
431 479 1
431 480 1
431 481 1
431 482 1
653 482 1
433 483 1
58 484 1
434 484 1
434 485 1
435 486 1
436 487 1
970 487 1
437 488 1
5 489 1
438 489 1
503 489 1
978 489 1
439 490 1
439 491 1
439 492 1
439 493 1
439 494 1
441 495 1
442 496 1
445 497 1
448 498 1
60 499 1
449 499 1
907 499 1
451 500 1
452 501 1
955 501 1
17 502 1
49 502 1
453 502 1
568 502 1
455 503 1
17 504 1
970 504 1
979 504 1
17 505 1
17 506 1
42 506 1
970 506 1
17 507 1
17 508 1
17 509 1
17 510 1
41 510 1
17 511 1
17 512 1
664 512 1
17 513 1
718 513 1
17 514 1
5 515 1
17 515 1
62 515 1
5 516 1
17 516 1
73 516 1
17 517 1
17 518 1
17 519 1
17 520 1
17 521 1
17 522 1
70 523 1
457 523 1
457 524 1
457 525 1
458 526 1
460 527 1
2 528 1
2 529 1
2 530 1
2 531 1
2 532 1
2 533 1
2 534 1
2 535 1
2 536 1
2 537 1
5 537 1
2 538 1
2 539 1
2 540 1
2 541 1
2 542 1
2 543 1
1 544 1
462 544 1
463 545 1
463 546 1
5 547 1
467 547 1
468 548 1
470 549 1
471 550 1
475 551 1
41 552 1
41 553 1
41 554 1
41 555 1
41 556 1
41 557 1
41 558 1
41 559 1
41 560 1
73 560 1
41 561 1
41 562 1
60 562 1
61 562 1
67 562 1
42 563 1
62 563 1
932 563 1
970 563 1
42 564 1
42 565 1
42 566 1
480 567 1
482 568 1
702 568 1
482 569 1
482 570 1
5 571 1
22 571 1
483 571 1
60 572 1
71 572 1
483 572 1
484 573 1
486 574 1
486 575 1
488 576 1
490 577 1
491 578 1
494 579 1
495 580 1
496 581 1
61 582 1
499 582 1
500 583 1
506 584 1
509 585 1
510 586 1
511 587 1
514 588 1
18 589 1
21 589 1
894 589 1
516 590 1
520 591 1
521 592 1
523 593 1
525 594 1
527 595 1
530 596 1
531 597 1
531 598 1
532 599 1
533 600 1
534 601 1
536 602 1
814 602 1
539 603 1
539 604 1
541 605 1
542 606 1
548 607 1
549 608 1
550 609 1
24 610 1
552 610 1
553 611 1
555 612 1
555 613 1
45 614 1
557 615 1
748 615 1
557 616 1
557 617 1
558 618 1
558 619 1
560 620 1
561 621 1
562 622 1
565 623 1
568 624 1
569 625 1
569 626 1
570 627 1
572 628 1
574 629 1
574 630 1
19 631 1
21 631 1
575 632 1
576 633 1
576 634 1
577 635 1
578 636 1
46 637 1
580 638 1
620 638 1
720 638 1
580 639 1
581 640 1
582 641 1
588 642 1
48 643 1
48 644 1
48 645 1
48 646 1
48 647 1
48 648 1
48 649 1
48 650 1
48 651 1
48 652 1
48 653 1
590 654 1
591 655 1
595 656 1
598 657 1
600 658 1
601 659 1
602 660 1
896 660 1
603 661 1
603 662 1
1010 662 1
606 663 1
607 664 1
608 665 1
609 666 1
610 667 1
5 668 1
49 668 1
5 669 1
49 669 1
49 670 1
49 671 1
615 672 1
616 673 1
1 674 1
1 675 1
1 676 1
1 677 1
1 678 1
1 679 1
1 680 1
1 681 1
1 682 1
1 683 1
1 684 1
1 685 1
1 686 1
1 687 1
1 688 1
1 689 1
1 690 1
1 691 1
1 692 1
1 693 1
1 694 1
1 695 1
1 696 1
1 697 1
1 698 1
1 699 1
617 700 1
621 701 1
622 701 1
21 702 1
21 703 1
21 704 1
897 704 1
623 705 1
4 706 1
4 707 1
4 708 1
627 709 1
631 710 1
22 711 1
878 711 1
891 711 1
22 712 1
22 713 1
22 714 1
633 715 1
635 716 1
635 717 1
847 717 1
635 718 1
636 719 1
637 720 1
640 721 1
51 722 1
51 723 1
643 724 1
643 725 1
646 726 1
655 727 1
655 728 1
655 729 1
657 730 1
675 731 1
896 731 1
676 732 1
677 733 1
679 734 1
680 735 1
681 736 1
683 737 1
902 737 1
685 738 1
686 739 1
689 740 1
689 741 1
692 742 1
693 743 1
701 744 1
704 745 1
705 746 1
706 747 1
709 748 1
710 749 1
718 750 1
718 751 1
60 752 1
722 752 1
723 753 1
726 754 1
838 754 1
730 755 1
732 756 1
733 757 1
956 757 1
733 758 1
901 758 1
734 759 1
735 760 1
738 761 1
739 762 1
740 763 1
742 764 1
745 765 1
5 766 1
751 766 1
753 767 1
754 768 1
758 769 1
764 770 1
766 771 1
767 772 1
768 773 1
770 774 1
55 775 1
777 776 1
782 777 1
785 778 1
788 779 1
792 780 1
794 781 1
796 782 1
799 783 1
801 784 1
802 785 1
57 786 1
57 787 1
804 788 1
805 789 1
805 790 1
805 791 1
806 792 1
806 793 1
810 794 1
811 795 1
811 796 1
841 796 1
812 797 1
815 798 1
817 799 1
836 799 1
822 800 1
823 801 1
824 802 1
825 803 1
827 804 1
58 805 1
58 806 1
8 807 1
829 808 1
61 809 1
832 809 1
59 810 1
833 811 1
835 812 1
840 813 1
61 814 1
843 814 1
850 815 1
852 816 1
854 817 1
857 818 1
857 819 1
980 819 1
61 820 1
860 820 1
860 821 1
872 822 1
874 823 1
877 824 1
878 825 1
881 826 1
882 827 1
883 828 1
60 829 1
883 829 1
886 830 1
886 831 1
890 832 1
890 833 1
60 834 1
60 835 1
60 836 1
60 837 1
60 838 1
60 839 1
60 840 1
60 841 1
5 842 1
61 842 1
61 843 1
61 844 1
61 845 1
61 846 1
61 847 1
61 848 1
61 849 1
61 850 1
61 851 1
61 852 1
61 853 1
61 854 1
61 855 1
61 856 1
61 857 1
61 858 1
61 859 1
61 860 1
61 861 1
61 862 1
61 863 1
61 864 1
61 865 1
61 866 1
61 867 1
61 868 1
61 869 1
61 870 1
61 871 1
61 872 1
61 873 1
61 874 1
61 875 1
61 876 1
61 877 1
61 878 1
61 879 1
955 879 1
61 880 1
61 881 1
61 882 1
61 883 1
61 884 1
61 885 1
61 886 1
61 887 1
5 888 1
61 888 1
61 889 1
61 890 1
61 891 1
61 892 1
61 893 1
61 894 1
71 894 1
61 895 1
61 896 1
61 897 1
61 898 1
61 899 1
61 900 1
61 901 1
61 902 1
61 903 1
61 904 1
61 905 1
61 906 1
61 907 1
61 908 1
61 909 1
61 910 1
61 911 1
61 912 1
61 913 1
61 914 1
61 915 1
61 916 1
61 917 1
895 918 1
896 919 1
896 920 1
896 921 1
896 922 1
897 923 1
71 924 1
897 924 1
898 925 1
899 926 1
62 927 1
62 928 1
62 929 1
62 930 1
62 931 1
62 932 1
62 933 1
957 933 1
970 933 1
907 934 1
908 935 1
63 936 1
63 937 1
63 938 1
63 939 1
63 940 1
911 941 1
914 942 1
915 943 1
915 944 1
915 945 1
5 946 1
5 947 1
5 948 1
5 949 1
5 950 1
5 951 1
925 951 1
5 952 1
5 953 1
5 954 1
5 955 1
5 956 1
5 957 1
5 958 1
5 959 1
5 960 1
5 961 1
5 962 1
5 963 1
5 964 1
5 965 1
73 965 1
5 966 1
5 967 1
5 968 1
5 969 1
5 970 1
5 971 1
919 972 1
921 973 1
922 974 1
928 975 1
942 976 1
943 977 1
944 978 1
948 979 1
65 980 1
950 981 1
951 982 1
952 983 1
952 984 1
955 985 1
955 986 1
955 987 1
955 988 1
67 989 1
25 990 1
67 990 1
67 991 1
966 992 1
967 993 1
970 994 1
970 995 1
970 996 1
975 997 1
978 998 1
24 999 1
68 1000 1
68 1001 1
982 1002 1
70 1003 1
70 1004 1
984 1005 1
71 1006 1
988 1007 1
989 1008 1
25 1009 1
25 1010 1
25 1011 1
990 1012 1
990 1013 1
992 1014 1
72 1015 1
995 1016 1
996 1017 1
1002 1018 1
1006 1019 1
1006 1020 1
1007 1021 1
1011 1022 1
73 1023 1
73 1024 1
73 1025 1
73 1026 1
73 1027 1
73 1028 1
73 1029 1
74 1030 1
74 1031 1
